NAME RECIPE_copy
ROWS
 N  OBJ
 E  BAL...BE
 E  BCC...BE
 E  BCH...BE
 E  BCL...BE
 E  BHH...BE
 E  BHL...BE
 E  BHX...BE
 E  BLV...BE
 E  BN4...BE
 E  BP8...BE
 E  B3E...BE
 E  B3P...BE
 E  B3R...BE
 E  B3T...BE
 E  B3E.VOBE
 E  B3P.VOBE
 E  B3R.VOBE
 G  NOM.3EBE
 G  NRO.3EBE
 G  N13.3EBE
 G  N14.3EBE
 G  N24.3EBE
 G  N36.3EBE
 G  NOM.3PBE
 G  NRO.3PBE
 G  N13.3PBE
 G  N14.3PBE
 G  N24.3PBE
 G  N36.3PBE
 G  NOM.3RBE
 G  NRO.3RBE
 G  N13.3RBE
 G  N14.3RBE
 G  N24.3RBE
 G  N36.3RBE
 E  WMO.3EBE
 E  WRO.3EBE
 E  WMO.3PBE
 E  WRO.3PBE
 E  WMO.3RBE
 E  WRO.3RBE
 L  XRV.3EBE
 L  X15.3EBE
 L  XRV.3PBE
 L  X15.3PBE
 L  XRV.3RBE
 L  X15.3RBE
 E  B&,1..BE
 E  BAL1..BE
 E  BCC1..BE
 E  BCH1..BE
 E  BCL1..BE
 E  BHH1..BE
 E  BHL1..BE
 E  BHX1..BE
 E  BLV1..BE
 E  BN41..BE
 E  BP81..BE
 E  B&,2..BE
 E  BAL2..BE
 E  BCC2..BE
 E  BCH2..BE
 E  BCL2..BE
 E  BHH2..BE
 E  BHL2..BE
 E  BHX2..BE
 E  BLV2..BE
 E  BN42..BE
 E  BP82..BE
 E  B&,3..BE
 E  BAL3..BE
 E  BCC3..BE
 E  BCH3..BE
 E  BCL3..BE
 E  BHH3..BE
 E  BHL3..BE
 E  BHX3..BE
 E  BLV3..BE
 E  BN43..BE
 E  BP83..BE
 E  B&,4..BE
 E  BAL4..BE
 E  BCC4..BE
 E  BCH4..BE
 E  BCL4..BE
 E  BHH4..BE
 E  BHL4..BE
 E  BHX4..BE
 E  BLV4..BE
 E  BN44..BE
 E  BP84..BE
COLUMNS
    BAL.3EBE  BAL...BE  -1
    BAL.3EBE  B3E.VOBE  1
    BAL.3EBE  XRV.3EBE  8.2
    BAL.3EBE  N13.3EBE  9
    BAL.3EBE  N14.3EBE  12
    BAL.3EBE  N24.3EBE  80
    BAL.3EBE  N36.3EBE  99
    BAL.3EBE  X15.3EBE  16
    BAL.3EBE  WRO.3EBE  93.61705
    BAL.3EBE  WMO.3EBE  88.6782
    BCC.3EBE  BCC...BE  -1
    BCC.3EBE  B3E.VOBE  1
    BCC.3EBE  XRV.3EBE  21.1
    BCC.3EBE  N13.3EBE  116.8
    BCC.3EBE  N14.3EBE  114
    BCC.3EBE  N24.3EBE  100
    BCC.3EBE  N36.3EBE  100
    BCC.3EBE  X15.3EBE  100
    BCC.3EBE  WRO.3EBE  99.22401
    BCC.3EBE  WMO.3EBE  80.06283
    BCH.3EBE  BCH...BE  -1
    BCH.3EBE  B3E.VOBE  1
    BCH.3EBE  XRV.3EBE  2
    BCH.3EBE  N13.3EBE  -14.8
    BCH.3EBE  N14.3EBE  -12
    BCH.3EBE  N24.3EBE  2.4
    BCH.3EBE  N36.3EBE  90
    BCH.3EBE  X15.3EBE  -8.2
    BCH.3EBE  WRO.3EBE  83.80122
    BCH.3EBE  WMO.3EBE  74.69736
    BCL.3EBE  BCL...BE  -1
    BCL.3EBE  B3E.VOBE  1
    BCL.3EBE  XRV.3EBE  8
    BCL.3EBE  N13.3EBE  2
    BCL.3EBE  N14.3EBE  9
    BCL.3EBE  N24.3EBE  95
    BCL.3EBE  N36.3EBE  100
    BCL.3EBE  X15.3EBE  43
    BCL.3EBE  WRO.3EBE  90.17511
    BCL.3EBE  WMO.3EBE  79.19421
    BHH.3EBE  BHH...BE  -1
    BHH.3EBE  B3E.VOBE  1
    BHH.3EBE  XRV.3EBE  1
    BHH.3EBE  N13.3EBE  -21.9
    BHH.3EBE  N14.3EBE  -18
    BHH.3EBE  N24.3EBE  4
    BHH.3EBE  N36.3EBE  96.5
    BHH.3EBE  X15.3EBE  -12.5
    BHH.3EBE  WRO.3EBE  85.9962
    BHH.3EBE  WMO.3EBE  78.56822
    BHL.3EBE  BHL...BE  -1
    BHL.3EBE  B3E.VOBE  1
    BHL.3EBE  XRV.3EBE  12.5
    BHL.3EBE  N13.3EBE  37
    BHL.3EBE  N14.3EBE  49
    BHL.3EBE  N24.3EBE  98
    BHL.3EBE  N36.3EBE  100
    BHL.3EBE  X15.3EBE  65
    BHL.3EBE  WRO.3EBE  86.96338
    BHL.3EBE  WMO.3EBE  82.92224
    BHX.3EBE  BHX...BE  -1
    BHX.3EBE  B3E.VOBE  1
    BHX.3EBE  XRV.3EBE  1
    BHX.3EBE  N13.3EBE  -21.9
    BHX.3EBE  N14.3EBE  -18
    BHX.3EBE  N24.3EBE  4
    BHX.3EBE  N36.3EBE  96.5
    BHX.3EBE  X15.3EBE  -12
    BHX.3EBE  WRO.3EBE  93.1476
    BHX.3EBE  WMO.3EBE  82.59274
    BLV.3EBE  BLV...BE  -1
    BLV.3EBE  B3E.VOBE  1
    BLV.3EBE  XRV.3EBE  12
    BLV.3EBE  N13.3EBE  61
    BLV.3EBE  N14.3EBE  68
    BLV.3EBE  N24.3EBE  95
    BLV.3EBE  N36.3EBE  100
    BLV.3EBE  X15.3EBE  79
    BLV.3EBE  WRO.3EBE  78.21025
    BLV.3EBE  WMO.3EBE  76.50646
    BN4.3EBE  BN4...BE  -1
    BN4.3EBE  B3E.VOBE  1
    BN4.3EBE  XRV.3EBE  61.3
    BN4.3EBE  N13.3EBE  145
    BN4.3EBE  N14.3EBE  145
    BN4.3EBE  N24.3EBE  100
    BN4.3EBE  N36.3EBE  100
    BN4.3EBE  X15.3EBE  125
    BN4.3EBE  WRO.3EBE  94.25784
    BN4.3EBE  WMO.3EBE  88.35746
    BP8.3EBE  BP8...BE  -1
    BP8.3EBE  B3E.VOBE  1
    BP8.3EBE  XRV.3EBE  6
    BP8.3EBE  N13.3EBE  3.6
    BP8.3EBE  N14.3EBE  4
    BP8.3EBE  N24.3EBE  28.5
    BP8.3EBE  N36.3EBE  97
    BP8.3EBE  X15.3EBE  6.2
    BP8.3EBE  WRO.3EBE  105.82863
    BP8.3EBE  WMO.3EBE  90.59047
    BAL.3PBE  BAL...BE  -1
    BAL.3PBE  B3P.VOBE  1
    BAL.3PBE  XRV.3PBE  8.2
    BAL.3PBE  N13.3PBE  9
    BAL.3PBE  N14.3PBE  12
    BAL.3PBE  N24.3PBE  80
    BAL.3PBE  N36.3PBE  99
    BAL.3PBE  X15.3PBE  16
    BAL.3PBE  WRO.3PBE  93.61705
    BAL.3PBE  WMO.3PBE  88.6782
    BCC.3PBE  BCC...BE  -1
    BCC.3PBE  B3P.VOBE  1
    BCC.3PBE  XRV.3PBE  21.1
    BCC.3PBE  N13.3PBE  116.8
    BCC.3PBE  N14.3PBE  114
    BCC.3PBE  N24.3PBE  100
    BCC.3PBE  N36.3PBE  100
    BCC.3PBE  X15.3PBE  100
    BCC.3PBE  WRO.3PBE  99.22401
    BCC.3PBE  WMO.3PBE  80.06283
    BCH.3PBE  BCH...BE  -1
    BCH.3PBE  B3P.VOBE  1
    BCH.3PBE  XRV.3PBE  2
    BCH.3PBE  N13.3PBE  -14.8
    BCH.3PBE  N14.3PBE  -12
    BCH.3PBE  N24.3PBE  2.4
    BCH.3PBE  N36.3PBE  90
    BCH.3PBE  X15.3PBE  -8.2
    BCH.3PBE  WRO.3PBE  83.80122
    BCH.3PBE  WMO.3PBE  74.69736
    BCL.3PBE  BCL...BE  -1
    BCL.3PBE  B3P.VOBE  1
    BCL.3PBE  XRV.3PBE  8
    BCL.3PBE  N13.3PBE  2
    BCL.3PBE  N14.3PBE  9
    BCL.3PBE  N24.3PBE  95
    BCL.3PBE  N36.3PBE  100
    BCL.3PBE  X15.3PBE  43
    BCL.3PBE  WRO.3PBE  90.17511
    BCL.3PBE  WMO.3PBE  79.19421
    BHH.3PBE  BHH...BE  -1
    BHH.3PBE  B3P.VOBE  1
    BHH.3PBE  XRV.3PBE  1
    BHH.3PBE  N13.3PBE  -21.9
    BHH.3PBE  N14.3PBE  -18
    BHH.3PBE  N24.3PBE  4
    BHH.3PBE  N36.3PBE  96.5
    BHH.3PBE  X15.3PBE  -12.5
    BHH.3PBE  WRO.3PBE  85.9962
    BHH.3PBE  WMO.3PBE  78.56822
    BHL.3PBE  BHL...BE  -1
    BHL.3PBE  B3P.VOBE  1
    BHL.3PBE  XRV.3PBE  12.5
    BHL.3PBE  N13.3PBE  37
    BHL.3PBE  N14.3PBE  49
    BHL.3PBE  N24.3PBE  98
    BHL.3PBE  N36.3PBE  100
    BHL.3PBE  X15.3PBE  65
    BHL.3PBE  WRO.3PBE  86.96338
    BHL.3PBE  WMO.3PBE  82.92224
    BHX.3PBE  BHX...BE  -1
    BHX.3PBE  B3P.VOBE  1
    BHX.3PBE  XRV.3PBE  1
    BHX.3PBE  N13.3PBE  -21.9
    BHX.3PBE  N14.3PBE  -18
    BHX.3PBE  N24.3PBE  4
    BHX.3PBE  N36.3PBE  96.5
    BHX.3PBE  X15.3PBE  -12
    BHX.3PBE  WRO.3PBE  93.1476
    BHX.3PBE  WMO.3PBE  82.59274
    BLV.3PBE  BLV...BE  -1
    BLV.3PBE  B3P.VOBE  1
    BLV.3PBE  XRV.3PBE  12
    BLV.3PBE  N13.3PBE  61
    BLV.3PBE  N14.3PBE  68
    BLV.3PBE  N24.3PBE  95
    BLV.3PBE  N36.3PBE  100
    BLV.3PBE  X15.3PBE  79
    BLV.3PBE  WRO.3PBE  78.21025
    BLV.3PBE  WMO.3PBE  76.50646
    BN4.3PBE  BN4...BE  -1
    BN4.3PBE  B3P.VOBE  1
    BN4.3PBE  XRV.3PBE  61.3
    BN4.3PBE  N13.3PBE  145
    BN4.3PBE  N14.3PBE  145
    BN4.3PBE  N24.3PBE  100
    BN4.3PBE  N36.3PBE  100
    BN4.3PBE  X15.3PBE  125
    BN4.3PBE  WRO.3PBE  94.25784
    BN4.3PBE  WMO.3PBE  88.35746
    BP8.3PBE  BP8...BE  -1
    BP8.3PBE  B3P.VOBE  1
    BP8.3PBE  XRV.3PBE  6
    BP8.3PBE  N13.3PBE  3.6
    BP8.3PBE  N14.3PBE  4
    BP8.3PBE  N24.3PBE  28.5
    BP8.3PBE  N36.3PBE  97
    BP8.3PBE  X15.3PBE  6.2
    BP8.3PBE  WRO.3PBE  105.82863
    BP8.3PBE  WMO.3PBE  90.59047
    BAL.3RBE  BAL...BE  -1
    BAL.3RBE  B3R.VOBE  1
    BAL.3RBE  XRV.3RBE  8.2
    BAL.3RBE  N13.3RBE  9
    BAL.3RBE  N14.3RBE  12
    BAL.3RBE  N24.3RBE  80
    BAL.3RBE  N36.3RBE  99
    BAL.3RBE  X15.3RBE  16
    BAL.3RBE  WRO.3RBE  93.61705
    BAL.3RBE  WMO.3RBE  88.6782
    BCC.3RBE  BCC...BE  -1
    BCC.3RBE  B3R.VOBE  1
    BCC.3RBE  XRV.3RBE  21.1
    BCC.3RBE  N13.3RBE  116.8
    BCC.3RBE  N14.3RBE  114
    BCC.3RBE  N24.3RBE  100
    BCC.3RBE  N36.3RBE  100
    BCC.3RBE  X15.3RBE  100
    BCC.3RBE  WRO.3RBE  99.22401
    BCC.3RBE  WMO.3RBE  80.06283
    BCH.3RBE  BCH...BE  -1
    BCH.3RBE  B3R.VOBE  1
    BCH.3RBE  XRV.3RBE  2
    BCH.3RBE  N13.3RBE  -14.8
    BCH.3RBE  N14.3RBE  -12
    BCH.3RBE  N24.3RBE  2.4
    BCH.3RBE  N36.3RBE  90
    BCH.3RBE  X15.3RBE  -8.2
    BCH.3RBE  WRO.3RBE  83.80122
    BCH.3RBE  WMO.3RBE  74.69736
    BCL.3RBE  BCL...BE  -1
    BCL.3RBE  B3R.VOBE  1
    BCL.3RBE  XRV.3RBE  8
    BCL.3RBE  N13.3RBE  2
    BCL.3RBE  N14.3RBE  9
    BCL.3RBE  N24.3RBE  95
    BCL.3RBE  N36.3RBE  100
    BCL.3RBE  X15.3RBE  43
    BCL.3RBE  WRO.3RBE  90.17511
    BCL.3RBE  WMO.3RBE  79.19421
    BHH.3RBE  BHH...BE  -1
    BHH.3RBE  B3R.VOBE  1
    BHH.3RBE  XRV.3RBE  1
    BHH.3RBE  N13.3RBE  -21.9
    BHH.3RBE  N14.3RBE  -18
    BHH.3RBE  N24.3RBE  4
    BHH.3RBE  N36.3RBE  96.5
    BHH.3RBE  X15.3RBE  -12.5
    BHH.3RBE  WRO.3RBE  85.9962
    BHH.3RBE  WMO.3RBE  78.56822
    BHL.3RBE  BHL...BE  -1
    BHL.3RBE  B3R.VOBE  1
    BHL.3RBE  XRV.3RBE  12.5
    BHL.3RBE  N13.3RBE  37
    BHL.3RBE  N14.3RBE  49
    BHL.3RBE  N24.3RBE  98
    BHL.3RBE  N36.3RBE  100
    BHL.3RBE  X15.3RBE  65
    BHL.3RBE  WRO.3RBE  86.96338
    BHL.3RBE  WMO.3RBE  82.92224
    BHX.3RBE  BHX...BE  -1
    BHX.3RBE  B3R.VOBE  1
    BHX.3RBE  XRV.3RBE  1
    BHX.3RBE  N13.3RBE  -21.9
    BHX.3RBE  N14.3RBE  -18
    BHX.3RBE  N24.3RBE  4
    BHX.3RBE  N36.3RBE  96.5
    BHX.3RBE  X15.3RBE  -12
    BHX.3RBE  WRO.3RBE  93.1476
    BHX.3RBE  WMO.3RBE  82.59274
    BLV.3RBE  BLV...BE  -1
    BLV.3RBE  B3R.VOBE  1
    BLV.3RBE  XRV.3RBE  12
    BLV.3RBE  N13.3RBE  61
    BLV.3RBE  N14.3RBE  68
    BLV.3RBE  N24.3RBE  95
    BLV.3RBE  N36.3RBE  100
    BLV.3RBE  X15.3RBE  79
    BLV.3RBE  WRO.3RBE  78.21025
    BLV.3RBE  WMO.3RBE  76.50646
    BN4.3RBE  BN4...BE  -1
    BN4.3RBE  B3R.VOBE  1
    BN4.3RBE  XRV.3RBE  61.3
    BN4.3RBE  N13.3RBE  145
    BN4.3RBE  N14.3RBE  145
    BN4.3RBE  N24.3RBE  100
    BN4.3RBE  N36.3RBE  100
    BN4.3RBE  X15.3RBE  125
    BN4.3RBE  WRO.3RBE  94.25784
    BN4.3RBE  WMO.3RBE  88.35746
    BP8.3RBE  BP8...BE  -1
    BP8.3RBE  B3R.VOBE  1
    BP8.3RBE  XRV.3RBE  6
    BP8.3RBE  N13.3RBE  3.6
    BP8.3RBE  N14.3RBE  4
    BP8.3RBE  N24.3RBE  28.5
    BP8.3RBE  N36.3RBE  97
    BP8.3RBE  X15.3RBE  6.2
    BP8.3RBE  WRO.3RBE  105.82863
    BP8.3RBE  WMO.3RBE  90.59047
    D3E...BE  B3E...BE  -1
    D3P...BE  B3P...BE  -1
    D3R...BE  B3R...BE  -1
    D3T...BE  B3T...BE  -1
    EAL...BE  BAL...BE  1
    ECC...BE  BCC...BE  1
    ECH...BE  BCH...BE  1
    ECL...BE  BCL...BE  1
    EHH...BE  BHH...BE  1
    EHL...BE  BHL...BE  1
    EHX...BE  BHX...BE  1
    ELV...BE  BLV...BE  1
    EN4...BE  BN4...BE  1
    EP8...BE  BP8...BE  1
    M3..3TBE  B3T...BE  1
    M3..3TBE  B3E...BE  -0.12
    M3..3TBE  B3P...BE  -0.38
    M3..3TBE  B3R...BE  -0.5
    J&,1IOBE  B&,1..BE  1
    JAL1IOBE  OBJ       -2
    JAL1IOBE  BAL1..BE  1
    JCC1IOBE  OBJ       -2
    JCC1IOBE  BCC1..BE  1
    JCH1IOBE  OBJ       -2
    JCH1IOBE  BCH1..BE  1
    JCL1IOBE  OBJ       -2
    JCL1IOBE  BCL1..BE  1
    JHH1IOBE  OBJ       -2
    JHH1IOBE  BHH1..BE  1
    JHL1IOBE  OBJ       -2
    JHL1IOBE  BHL1..BE  1
    JHX1IOBE  OBJ       -2
    JHX1IOBE  BHX1..BE  1
    JLV1IOBE  OBJ       -2
    JLV1IOBE  BLV1..BE  1
    JN41IOBE  BN41..BE  1
    JP81IOBE  OBJ       -2
    JP81IOBE  BP81..BE  1
    J&,1MXBE  B&,1..BE  -1
    J&,1MXBE  B&,2..BE  1
    JAL1MXBE  OBJ       0.002
    JAL1MXBE  BAL1..BE  -1
    JAL1MXBE  BAL2..BE  1
    JCC1MXBE  OBJ       0.002
    JCC1MXBE  BCC1..BE  -1
    JCC1MXBE  BCC2..BE  1
    JCH1MXBE  OBJ       0.002
    JCH1MXBE  BCH1..BE  -1
    JCH1MXBE  BCH2..BE  1
    JCL1MXBE  OBJ       0.002
    JCL1MXBE  BCL1..BE  -1
    JCL1MXBE  BCL2..BE  1
    JHH1MXBE  OBJ       0.002
    JHH1MXBE  BHH1..BE  -1
    JHH1MXBE  BHH2..BE  1
    JHL1MXBE  OBJ       0.002
    JHL1MXBE  BHL1..BE  -1
    JHL1MXBE  BHL2..BE  1
    JHX1MXBE  OBJ       0.001
    JHX1MXBE  BHX1..BE  -1
    JHX1MXBE  BHX2..BE  1
    JLV1MXBE  OBJ       0.002
    JLV1MXBE  BLV1..BE  -1
    JLV1MXBE  BLV2..BE  1
    JN41MXBE  OBJ       0.002
    JN41MXBE  BN41..BE  -1
    JN41MXBE  BN42..BE  1
    JP81MXBE  OBJ       0.002
    JP81MXBE  BP81..BE  -1
    JP81MXBE  BP82..BE  1
    J&,1TGBE  B&,1..BE  -1
    J&,1TGBE  B&,2..BE  1
    JAL1TGBE  OBJ       -0.002
    JAL1TGBE  BAL1..BE  -1
    JAL1TGBE  BAL2..BE  1
    JCC1TGBE  OBJ       -0.002
    JCC1TGBE  BCC1..BE  -1
    JCC1TGBE  BCC2..BE  1
    JCH1TGBE  OBJ       -0.002
    JCH1TGBE  BCH1..BE  -1
    JCH1TGBE  BCH2..BE  1
    JCL1TGBE  OBJ       -0.002
    JCL1TGBE  BCL1..BE  -1
    JCL1TGBE  BCL2..BE  1
    JHH1TGBE  OBJ       -0.002
    JHH1TGBE  BHH1..BE  -1
    JHH1TGBE  BHH2..BE  1
    JHL1TGBE  OBJ       -0.002
    JHL1TGBE  BHL1..BE  -1
    JHL1TGBE  BHL2..BE  1
    JHX1TGBE  OBJ       -0.001
    JHX1TGBE  BHX1..BE  -1
    JHX1TGBE  BHX2..BE  1
    JLV1TGBE  OBJ       -0.002
    JLV1TGBE  BLV1..BE  -1
    JLV1TGBE  BLV2..BE  1
    JN41TGBE  OBJ       -0.002
    JN41TGBE  BN41..BE  -1
    JN41TGBE  BN42..BE  1
    JP81TGBE  OBJ       -0.002
    JP81TGBE  BP81..BE  -1
    JP81TGBE  BP82..BE  1
    QVO13EBE  B3E...BE  1
    QVO13EBE  B3E.VOBE  -1
    QVO13EBE  XRV.3EBE  -8.7
    QVO13EBE  N13.3EBE  -10
    QVO13EBE  N14.3EBE  -10
    QVO13EBE  N24.3EBE  -50
    QVO13EBE  N36.3EBE  -90
    QVO13EBE  X15.3EBE  -47
    QVO13EBE  NOM.3EBE  -89
    QVO13EBE  NRO.3EBE  -93
    QVO13PBE  B3P...BE  1
    QVO13PBE  B3P.VOBE  -1
    QVO13PBE  XRV.3PBE  -8.7
    QVO13PBE  N13.3PBE  -10
    QVO13PBE  N14.3PBE  -10
    QVO13PBE  N24.3PBE  -50
    QVO13PBE  N36.3PBE  -90
    QVO13PBE  X15.3PBE  -47
    QVO13PBE  NOM.3PBE  -85
    QVO13PBE  NRO.3PBE  -89
    QVO13RBE  B3R...BE  1
    QVO13RBE  B3R.VOBE  -1
    QVO13RBE  XRV.3RBE  -8.7
    QVO13RBE  N13.3RBE  -10
    QVO13RBE  N14.3RBE  -10
    QVO13RBE  N24.3RBE  -50
    QVO13RBE  N36.3RBE  -90
    QVO13RBE  X15.3RBE  -47
    QVO13RBE  NOM.3RBE  -88
    QVO13RBE  NRO.3RBE  -91
    WMO13EBE  WMO.3EBE  -1
    WMO13EBE  NOM.3EBE  0.5
    WRO13EBE  WRO.3EBE  -1
    WRO13EBE  NOM.3EBE  0.5
    WRO13EBE  NRO.3EBE  1
    WMO13PBE  WMO.3PBE  -1
    WMO13PBE  NOM.3PBE  0.5
    WRO13PBE  WRO.3PBE  -1
    WRO13PBE  NOM.3PBE  0.5
    WRO13PBE  NRO.3PBE  1
    WMO13RBE  WMO.3RBE  -1
    WMO13RBE  NOM.3RBE  0.5
    WRO13RBE  WRO.3RBE  -1
    WRO13RBE  NOM.3RBE  0.5
    WRO13RBE  NRO.3RBE  1
    J&,2MXBE  B&,2..BE  -1
    J&,2MXBE  B&,3..BE  1
    JAL2MXBE  OBJ       0.002
    JAL2MXBE  BAL2..BE  -1
    JAL2MXBE  BAL3..BE  1
    JCC2MXBE  OBJ       0.002
    JCC2MXBE  BCC2..BE  -1
    JCC2MXBE  BCC3..BE  1
    JCH2MXBE  OBJ       0.002
    JCH2MXBE  BCH2..BE  -1
    JCH2MXBE  BCH3..BE  1
    JCL2MXBE  OBJ       0.002
    JCL2MXBE  BCL2..BE  -1
    JCL2MXBE  BCL3..BE  1
    JHH2MXBE  OBJ       0.002
    JHH2MXBE  BHH2..BE  -1
    JHH2MXBE  BHH3..BE  1
    JHL2MXBE  OBJ       0.002
    JHL2MXBE  BHL2..BE  -1
    JHL2MXBE  BHL3..BE  1
    JHX2MXBE  OBJ       0.001
    JHX2MXBE  BHX2..BE  -1
    JHX2MXBE  BHX3..BE  1
    JLV2MXBE  OBJ       0.002
    JLV2MXBE  BLV2..BE  -1
    JLV2MXBE  BLV3..BE  1
    JN42MXBE  OBJ       0.002
    JN42MXBE  BN42..BE  -1
    JN42MXBE  BN43..BE  1
    JP82MXBE  OBJ       0.002
    JP82MXBE  BP82..BE  -1
    JP82MXBE  BP83..BE  1
    J&,2TGBE  B&,2..BE  -1
    J&,2TGBE  B&,3..BE  1
    JAL2TGBE  OBJ       -0.002
    JAL2TGBE  BAL2..BE  -1
    JAL2TGBE  BAL3..BE  1
    JCC2TGBE  OBJ       -0.002
    JCC2TGBE  BCC2..BE  -1
    JCC2TGBE  BCC3..BE  1
    JCH2TGBE  OBJ       -0.002
    JCH2TGBE  BCH2..BE  -1
    JCH2TGBE  BCH3..BE  1
    JCL2TGBE  OBJ       -0.002
    JCL2TGBE  BCL2..BE  -1
    JCL2TGBE  BCL3..BE  1
    JHH2TGBE  OBJ       -0.002
    JHH2TGBE  BHH2..BE  -1
    JHH2TGBE  BHH3..BE  1
    JHL2TGBE  OBJ       -0.002
    JHL2TGBE  BHL2..BE  -1
    JHL2TGBE  BHL3..BE  1
    JHX2TGBE  OBJ       -0.001
    JHX2TGBE  BHX2..BE  -1
    JHX2TGBE  BHX3..BE  1
    JLV2TGBE  OBJ       -0.002
    JLV2TGBE  BLV2..BE  -1
    JLV2TGBE  BLV3..BE  1
    JN42TGBE  OBJ       -0.002
    JN42TGBE  BN42..BE  -1
    JN42TGBE  BN43..BE  1
    JP82TGBE  OBJ       -0.002
    JP82TGBE  BP82..BE  -1
    JP82TGBE  BP83..BE  1
    QVO23EBE  B3E...BE  1
    QVO23EBE  B3E.VOBE  -1
    QVO23EBE  XRV.3EBE  -8.7
    QVO23EBE  N13.3EBE  -10
    QVO23EBE  N14.3EBE  -10
    QVO23EBE  N24.3EBE  -50
    QVO23EBE  N36.3EBE  -90
    QVO23EBE  X15.3EBE  -47
    QVO23EBE  NOM.3EBE  -89
    QVO23EBE  NRO.3EBE  -93
    QVO23PBE  B3P...BE  1
    QVO23PBE  B3P.VOBE  -1
    QVO23PBE  XRV.3PBE  -8.7
    QVO23PBE  N13.3PBE  -10
    QVO23PBE  N14.3PBE  -10
    QVO23PBE  N24.3PBE  -50
    QVO23PBE  N36.3PBE  -90
    QVO23PBE  X15.3PBE  -47
    QVO23PBE  NOM.3PBE  -85
    QVO23PBE  NRO.3PBE  -89
    QVO23RBE  B3R...BE  1
    QVO23RBE  B3R.VOBE  -1
    QVO23RBE  XRV.3RBE  -8.7
    QVO23RBE  N13.3RBE  -10
    QVO23RBE  N14.3RBE  -10
    QVO23RBE  N24.3RBE  -50
    QVO23RBE  N36.3RBE  -90
    QVO23RBE  X15.3RBE  -47
    QVO23RBE  NOM.3RBE  -88
    QVO23RBE  NRO.3RBE  -91
    WMO23EBE  WMO.3EBE  -1
    WMO23EBE  NOM.3EBE  0.5
    WRO23EBE  WRO.3EBE  -1
    WRO23EBE  NOM.3EBE  0.5
    WRO23EBE  NRO.3EBE  1
    WMO23PBE  WMO.3PBE  -1
    WMO23PBE  NOM.3PBE  0.5
    WRO23PBE  WRO.3PBE  -1
    WRO23PBE  NOM.3PBE  0.5
    WRO23PBE  NRO.3PBE  1
    WMO23RBE  WMO.3RBE  -1
    WMO23RBE  NOM.3RBE  0.5
    WRO23RBE  WRO.3RBE  -1
    WRO23RBE  NOM.3RBE  0.5
    WRO23RBE  NRO.3RBE  1
    J&,3MXBE  B&,3..BE  -1
    J&,3MXBE  B&,4..BE  1
    JAL3MXBE  OBJ       0.002
    JAL3MXBE  BAL3..BE  -1
    JAL3MXBE  BAL4..BE  1
    JCC3MXBE  OBJ       0.002
    JCC3MXBE  BCC3..BE  -1
    JCC3MXBE  BCC4..BE  1
    JCH3MXBE  OBJ       0.002
    JCH3MXBE  BCH3..BE  -1
    JCH3MXBE  BCH4..BE  1
    JCL3MXBE  OBJ       0.002
    JCL3MXBE  BCL3..BE  -1
    JCL3MXBE  BCL4..BE  1
    JHH3MXBE  OBJ       0.002
    JHH3MXBE  BHH3..BE  -1
    JHH3MXBE  BHH4..BE  1
    JHL3MXBE  OBJ       0.002
    JHL3MXBE  BHL3..BE  -1
    JHL3MXBE  BHL4..BE  1
    JHX3MXBE  OBJ       0.001
    JHX3MXBE  BHX3..BE  -1
    JHX3MXBE  BHX4..BE  1
    JLV3MXBE  OBJ       0.002
    JLV3MXBE  BLV3..BE  -1
    JLV3MXBE  BLV4..BE  1
    JN43MXBE  OBJ       0.002
    JN43MXBE  BN43..BE  -1
    JN43MXBE  BN44..BE  1
    JP83MXBE  OBJ       0.002
    JP83MXBE  BP83..BE  -1
    JP83MXBE  BP84..BE  1
    J&,3TGBE  B&,3..BE  -1
    J&,3TGBE  B&,4..BE  1
    JAL3TGBE  OBJ       -0.002
    JAL3TGBE  BAL3..BE  -1
    JAL3TGBE  BAL4..BE  1
    JCC3TGBE  OBJ       -0.002
    JCC3TGBE  BCC3..BE  -1
    JCC3TGBE  BCC4..BE  1
    JCH3TGBE  OBJ       -0.002
    JCH3TGBE  BCH3..BE  -1
    JCH3TGBE  BCH4..BE  1
    JCL3TGBE  OBJ       -0.002
    JCL3TGBE  BCL3..BE  -1
    JCL3TGBE  BCL4..BE  1
    JHH3TGBE  OBJ       -0.002
    JHH3TGBE  BHH3..BE  -1
    JHH3TGBE  BHH4..BE  1
    JHL3TGBE  OBJ       -0.002
    JHL3TGBE  BHL3..BE  -1
    JHL3TGBE  BHL4..BE  1
    JHX3TGBE  OBJ       -0.001
    JHX3TGBE  BHX3..BE  -1
    JHX3TGBE  BHX4..BE  1
    JLV3TGBE  OBJ       -0.002
    JLV3TGBE  BLV3..BE  -1
    JLV3TGBE  BLV4..BE  1
    JN43TGBE  OBJ       -0.002
    JN43TGBE  BN43..BE  -1
    JN43TGBE  BN44..BE  1
    JP83TGBE  OBJ       -0.002
    JP83TGBE  BP83..BE  -1
    JP83TGBE  BP84..BE  1
    QVO33EBE  B3E...BE  1
    QVO33EBE  B3E.VOBE  -1
    QVO33EBE  XRV.3EBE  -8.7
    QVO33EBE  N13.3EBE  -10
    QVO33EBE  N14.3EBE  -10
    QVO33EBE  N24.3EBE  -50
    QVO33EBE  N36.3EBE  -90
    QVO33EBE  X15.3EBE  -47
    QVO33EBE  NOM.3EBE  -89
    QVO33EBE  NRO.3EBE  -93
    QVO33PBE  B3P...BE  1
    QVO33PBE  B3P.VOBE  -1
    QVO33PBE  XRV.3PBE  -8.7
    QVO33PBE  N13.3PBE  -10
    QVO33PBE  N14.3PBE  -10
    QVO33PBE  N24.3PBE  -50
    QVO33PBE  N36.3PBE  -90
    QVO33PBE  X15.3PBE  -47
    QVO33PBE  NOM.3PBE  -85
    QVO33PBE  NRO.3PBE  -89
    QVO33RBE  B3R...BE  1
    QVO33RBE  B3R.VOBE  -1
    QVO33RBE  XRV.3RBE  -8.7
    QVO33RBE  N13.3RBE  -10
    QVO33RBE  N14.3RBE  -10
    QVO33RBE  N24.3RBE  -50
    QVO33RBE  N36.3RBE  -90
    QVO33RBE  X15.3RBE  -47
    QVO33RBE  NOM.3RBE  -88
    QVO33RBE  NRO.3RBE  -91
    WMO33EBE  WMO.3EBE  -1
    WMO33EBE  NOM.3EBE  0.5
    WRO33EBE  WRO.3EBE  -1
    WRO33EBE  NOM.3EBE  0.5
    WRO33EBE  NRO.3EBE  1
    WMO33PBE  WMO.3PBE  -1
    WMO33PBE  NOM.3PBE  0.5
    WRO33PBE  WRO.3PBE  -1
    WRO33PBE  NOM.3PBE  0.5
    WRO33PBE  NRO.3PBE  1
    WMO33RBE  WMO.3RBE  -1
    WMO33RBE  NOM.3RBE  0.5
    WRO33RBE  WRO.3RBE  -1
    WRO33RBE  NOM.3RBE  0.5
    WRO33RBE  NRO.3RBE  1
    J&,4MXBE  B&,4..BE  -1
    JAL4MXBE  OBJ       0.1
    JAL4MXBE  BAL4..BE  -1
    JCC4MXBE  OBJ       0.1
    JCC4MXBE  BCC4..BE  -1
    JCH4MXBE  OBJ       0.1
    JCH4MXBE  BCH4..BE  -1
    JCL4MXBE  OBJ       0.1
    JCL4MXBE  BCL4..BE  -1
    JHH4MXBE  OBJ       0.1
    JHH4MXBE  BHH4..BE  -1
    JHL4MXBE  OBJ       0.1
    JHL4MXBE  BHL4..BE  -1
    JHX4MXBE  OBJ       0.1
    JHX4MXBE  BHX4..BE  -1
    JLV4MXBE  OBJ       0.1
    JLV4MXBE  BLV4..BE  -1
    JN44MXBE  OBJ       0.1
    JN44MXBE  BN44..BE  -1
    JP84MXBE  OBJ       0.1
    JP84MXBE  BP84..BE  -1
    J&,4TGBE  B&,4..BE  -1
    JAL4TGBE  OBJ       -0.1
    JAL4TGBE  BAL4..BE  -1
    JCC4TGBE  OBJ       -0.1
    JCC4TGBE  BCC4..BE  -1
    JCH4TGBE  OBJ       -0.1
    JCH4TGBE  BCH4..BE  -1
    JCL4TGBE  OBJ       -0.1
    JCL4TGBE  BCL4..BE  -1
    JHH4TGBE  OBJ       -0.1
    JHH4TGBE  BHH4..BE  -1
    JHL4TGBE  OBJ       -0.1
    JHL4TGBE  BHL4..BE  -1
    JHX4TGBE  OBJ       -0.1
    JHX4TGBE  BHX4..BE  -1
    JLV4TGBE  OBJ       -0.1
    JLV4TGBE  BLV4..BE  -1
    JN44TGBE  OBJ       -0.1
    JN44TGBE  BN44..BE  -1
    JP84TGBE  OBJ       -0.1
    JP84TGBE  BP84..BE  -1
    QVO43EBE  B3E...BE  1
    QVO43EBE  B3E.VOBE  -1
    QVO43EBE  XRV.3EBE  -8.7
    QVO43EBE  N13.3EBE  -10
    QVO43EBE  N14.3EBE  -10
    QVO43EBE  N24.3EBE  -50
    QVO43EBE  N36.3EBE  -90
    QVO43EBE  X15.3EBE  -47
    QVO43EBE  NOM.3EBE  -89
    QVO43EBE  NRO.3EBE  -93
    QVO43PBE  B3P...BE  1
    QVO43PBE  B3P.VOBE  -1
    QVO43PBE  XRV.3PBE  -8.7
    QVO43PBE  N13.3PBE  -10
    QVO43PBE  N14.3PBE  -10
    QVO43PBE  N24.3PBE  -50
    QVO43PBE  N36.3PBE  -90
    QVO43PBE  X15.3PBE  -47
    QVO43PBE  NOM.3PBE  -85
    QVO43PBE  NRO.3PBE  -89
    QVO43RBE  B3R...BE  1
    QVO43RBE  B3R.VOBE  -1
    QVO43RBE  XRV.3RBE  -8.7
    QVO43RBE  N13.3RBE  -10
    QVO43RBE  N14.3RBE  -10
    QVO43RBE  N24.3RBE  -50
    QVO43RBE  N36.3RBE  -90
    QVO43RBE  X15.3RBE  -47
    QVO43RBE  NOM.3RBE  -88
    QVO43RBE  NRO.3RBE  -91
    WMO43EBE  WMO.3EBE  -1
    WMO43EBE  NOM.3EBE  0.5
    WRO43EBE  WRO.3EBE  -1
    WRO43EBE  NOM.3EBE  0.5
    WRO43EBE  NRO.3EBE  1
    WMO43PBE  WMO.3PBE  -1
    WMO43PBE  NOM.3PBE  0.5
    WRO43PBE  WRO.3PBE  -1
    WRO43PBE  NOM.3PBE  0.5
    WRO43PBE  NRO.3PBE  1
    WMO43RBE  WMO.3RBE  -1
    WMO43RBE  NOM.3RBE  0.5
    WRO43RBE  WRO.3RBE  -1
    WRO43RBE  NOM.3RBE  0.5
    WRO43RBE  NRO.3RBE  1
RHS
BOUNDS
 FX BND1      J&,1IOBE  0
 UP BND1      JAL1IOBE  92
 UP BND1      JCC1IOBE  39
 UP BND1      JCH1IOBE  87
 UP BND1      JCL1IOBE  29
 FX BND1      JHH1IOBE  0
 UP BND1      JHL1IOBE  20
 FX BND1      JHX1IOBE  0
 UP BND1      JLV1IOBE  28
 UP BND1      JN41IOBE  20
 UP BND1      JP81IOBE  71
 UP BND1      JAL1MXBE  130
 UP BND1      JCC1MXBE  45
 UP BND1      JCH1MXBE  53
 UP BND1      JCL1MXBE  55
 UP BND1      JHH1MXBE  75
 UP BND1      JHL1MXBE  112
 FX BND1      JHX1MXBE  0
 UP BND1      JLV1MXBE  73
 UP BND1      JN41MXBE  480
 UP BND1      JP81MXBE  154
 UP BND1      J&,1TGBE  121
 LO BND1      JAL1TGBE  10
 UP BND1      JAL1TGBE  50
 LO BND1      JCC1TGBE  5
 UP BND1      JCC1TGBE  30
 LO BND1      JCH1TGBE  10
 UP BND1      JCH1TGBE  77
 LO BND1      JCL1TGBE  5
 UP BND1      JCL1TGBE  20
 FX BND1      JHH1TGBE  0
 LO BND1      JHL1TGBE  10
 UP BND1      JHL1TGBE  18
 FX BND1      JHX1TGBE  0
 LO BND1      JLV1TGBE  2
 UP BND1      JLV1TGBE  5
 UP BND1      JN41TGBE  20
 LO BND1      JP81TGBE  10
 UP BND1      JP81TGBE  71
 UP BND1      JAL2MXBE  130
 UP BND1      JCC2MXBE  55
 UP BND1      JCH2MXBE  93
 UP BND1      JCL2MXBE  60
 UP BND1      JHH2MXBE  75
 UP BND1      JHL2MXBE  115
 FX BND1      JHX2MXBE  0
 UP BND1      JLV2MXBE  67
 UP BND1      JN42MXBE  480
 UP BND1      JP82MXBE  154
 UP BND1      J&,2TGBE  121
 LO BND1      JAL2TGBE  10
 UP BND1      JAL2TGBE  50
 LO BND1      JCC2TGBE  5
 UP BND1      JCC2TGBE  20
 LO BND1      JCH2TGBE  10
 UP BND1      JCH2TGBE  37
 LO BND1      JCL2TGBE  5
 UP BND1      JCL2TGBE  15
 FX BND1      JHH2TGBE  0
 LO BND1      JHL2TGBE  10
 UP BND1      JHL2TGBE  15
 FX BND1      JHX2TGBE  0
 LO BND1      JLV2TGBE  5
 UP BND1      JLV2TGBE  8
 UP BND1      JN42TGBE  20
 LO BND1      JP82TGBE  10
 UP BND1      JP82TGBE  71
 UP BND1      JAL3MXBE  130
 UP BND1      JCC3MXBE  55
 UP BND1      JCH3MXBE  93
 UP BND1      JCL3MXBE  60
 UP BND1      JHH3MXBE  75
 UP BND1      JHL3MXBE  105
 FX BND1      JHX3MXBE  0
 UP BND1      JLV3MXBE  67
 UP BND1      JN43MXBE  4980
 UP BND1      JP83MXBE  154
 UP BND1      J&,3TGBE  110
 LO BND1      JAL3TGBE  10
 UP BND1      JAL3TGBE  50
 LO BND1      JCC3TGBE  5
 UP BND1      JCC3TGBE  20
 LO BND1      JCH3TGBE  10
 UP BND1      JCH3TGBE  37
 LO BND1      JCL3TGBE  5
 UP BND1      JCL3TGBE  15
 FX BND1      JHH3TGBE  0
 LO BND1      JHL3TGBE  10
 UP BND1      JHL3TGBE  25
 FX BND1      JHX3TGBE  0
 LO BND1      JLV3TGBE  5
 UP BND1      JLV3TGBE  8
 UP BND1      JN43TGBE  20
 LO BND1      JP83TGBE  10
 UP BND1      JP83TGBE  71
 UP BND1      JAL4MXBE  20
 UP BND1      JCC4MXBE  20
 UP BND1      JCH4MXBE  20
 UP BND1      JCL4MXBE  20
 FX BND1      JHH4MXBE  0
 UP BND1      JHL4MXBE  20
 FX BND1      JHX4MXBE  0
 UP BND1      JLV4MXBE  20
 FX BND1      JN44MXBE  0
 UP BND1      JP84MXBE  20
 FX BND1      J&,4TGBE  0
 FX BND1      JAL4TGBE  0
 FX BND1      JCC4TGBE  0
 FX BND1      JCH4TGBE  0
 FX BND1      JCL4TGBE  0
 FX BND1      JHH4TGBE  0
 FX BND1      JHL4TGBE  0
 FX BND1      JHX4TGBE  0
 FX BND1      JLV4TGBE  0
 FX BND1      JN44TGBE  0
 FX BND1      JP84TGBE  0
ENDATA
